c smth
s vc 200 138
198
195
193
192
190
188
185
184
182
181
178
177
176
175
174
173
168
167
166
165
164
163
162
159
157
156
155
154
152
151
148
146
145
144
143
142
141
140
139
138
137
136
135
134
132
131
130
129
128
126
125
124
122
120
118
116
115
113
112
111
110
108
107
105
103
102
101
100
99
98
95
93
91
88
87
85
84
83
82
81
80
79
77
75
74
73
72
69
68
67
66
65
64
62
61
60
57
56
55
54
53
51
50
49
48
46
45
43
42
41
40
39
38
37
35
34
33
31
30
27
26
24
23
22
20
18
17
16
15
14
12
11
10
8
6
5
3
1